min: T; 
T>T1; T>T2; T>T3; T>T4; T>T5;

tEC1=0 2*d1;
T1=tEC1 80*a11;
d1 a11=10000;

tSC2=tEC1;
tEC2=tSC2 2*d3 2*d2;
T2=tEC2 80*a21;
d2 d3 a21=d1;

tSC3>2*d2 tSC2;
tSC3>tEC2 60*a31-1000000*X23-1000000*Y24;
tSC3>tEC2-1000000*X23;
tEC3=tSC3 3*d5;
T3=tEC3 60*a32;
a31 a32 d5=d2;
a31<1000000-1000000*X23;
a31<1000000-1000000*Y24;

tSC5>2*d3 tSC2;
tSC5>tEC2 50*a51-1000000 1000000*X23-1000000*Y35;
tSC5>tEC2-1000000 1000000*X23;
tEC5=tSC5 3*d4;
T5=tEC5 50*a52;
a51 a52 d4=d3;
a51<1000000*X23;
a51<1000000-1000000*Y35;

tEC4>tEC5 70*a41 3*d5;
tEC4>tEC3 70*a41 3*d4;
T4=tEC4 70*a42;
d4 d5=a41 a42;
a41<1000000*Y35 1000000-1000000*X23;
a41<1000000*Y24 1000000*X23; 

X23<1;
Y24<1-X23;
Y35<X23;
int X23; 
int Y35;
int Y24;
int a11;
int a21;
int a51;
int a52;
int a31;
int a32;
int a41;
int a42;

